data/lp_files/q3/52_1.lp
\ Model foo
\ LP format - for model browsing. Use MPS format to capture full model detail.
Minimize
  z
Subject To
 allocateEach[1]: x[1,1] + x[2,1] + x[3,1] = 1
 allocateEach[2]: x[1,2] + x[2,2] + x[3,2] = 1
 allocateEach[3]: x[1,3] + x[2,3] + x[3,3] = 1
 allocateEach[4]: x[1,4] + x[2,4] + x[3,4] = 1
 allocateEach[5]: x[1,5] + x[2,5] + x[3,5] = 1
 allocateEach[6]: x[1,6] + x[2,6] + x[3,6] = 1
 allocateEach[7]: x[1,7] + x[2,7] + x[3,7] = 1
 allocateEach[8]: x[1,8] + x[2,8] + x[3,8] = 1
 allocateEach[9]: x[1,9] + x[2,9] + x[3,9] = 1
 allocateEach[10]: x[1,10] + x[2,10] + x[3,10] = 1
 allocateEach[11]: x[1,11] + x[2,11] + x[3,11] = 1
 allocateEach[12]: x[1,12] + x[2,12] + x[3,12] = 1
 allocateAllCash: cashProportion[1] + cashProportion[2] + cashProportion[3]
   = 1
 findWorstP[1,2]: z + 0.0154738878143133 cashProportion[1]
   - 0.0154738878143133 cashProportion[2] + 0.0896247582205029 x[1,1]
   + 0.1365880077369439 x[1,2] + 0.0243094777562863 x[1,3]
   + 0.1412920696324952 x[1,4] + 0.0950870406189555 x[1,5]
   + 0.1238684719535783 x[1,6] + 0.1024526112185687 x[1,7]
   + 0.00628239845261122 x[1,8] + 0.1477601547388781 x[1,9]
   + 1.7021276595744679e-04 x[1,10] + 0.076595744680851 x[1,11]
   + 0.040495164410058 x[1,12] - 0.0896247582205029 x[2,1]
   - 0.1365880077369439 x[2,2] - 0.0243094777562863 x[2,3]
   - 0.1412920696324952 x[2,4] - 0.0950870406189555 x[2,5]
   - 0.1238684719535783 x[2,6] - 0.1024526112185687 x[2,7]
   - 0.00628239845261122 x[2,8] - 0.1477601547388781 x[2,9]
   - 1.7021276595744679e-04 x[2,10] - 0.076595744680851 x[2,11]
   - 0.040495164410058 x[2,12] >= 0
 findWorstP[1,3]: z + 0.0154738878143133 cashProportion[1]
   - 0.0154738878143133 cashProportion[3] + 0.0896247582205029 x[1,1]
   + 0.1365880077369439 x[1,2] + 0.0243094777562863 x[1,3]
   + 0.1412920696324952 x[1,4] + 0.0950870406189555 x[1,5]
   + 0.1238684719535783 x[1,6] + 0.1024526112185687 x[1,7]
   + 0.00628239845261122 x[1,8] + 0.1477601547388781 x[1,9]
   + 1.7021276595744679e-04 x[1,10] + 0.076595744680851 x[1,11]
   + 0.040495164410058 x[1,12] - 0.0896247582205029 x[3,1]
   - 0.1365880077369439 x[3,2] - 0.0243094777562863 x[3,3]
   - 0.1412920696324952 x[3,4] - 0.0950870406189555 x[3,5]
   - 0.1238684719535783 x[3,6] - 0.1024526112185687 x[3,7]
   - 0.00628239845261122 x[3,8] - 0.1477601547388781 x[3,9]
   - 1.7021276595744679e-04 x[3,10] - 0.076595744680851 x[3,11]
   - 0.040495164410058 x[3,12] >= 0
 findWorstP[2,1]: z - 0.0168296336188761 cashProportion[1]
   + 0.0168296336188761 cashProportion[2] - 0.0361500530133459 x[1,1]
   - 0.1468048940574564 x[1,2] - 0.0556051094767667 x[1,3]
   - 0.0943637557010384 x[1,4] - 0.1656709133442165 x[1,5]
   - 0.0958615930931184 x[1,6] - 0.0360154159443949 x[1,7]
   - 0.1175718204614686 x[1,8] - 0.085174775745132 x[1,9]
   - 0.0363351789831535 x[1,10] - 0.1065147511738669 x[1,11]
   - 0.00710210538716572 x[1,12] + 0.0361500530133459 x[2,1]
   + 0.1468048940574564 x[2,2] + 0.0556051094767667 x[2,3]
   + 0.0943637557010384 x[2,4] + 0.1656709133442165 x[2,5]
   + 0.0958615930931184 x[2,6] + 0.0360154159443949 x[2,7]
   + 0.1175718204614686 x[2,8] + 0.085174775745132 x[2,9]
   + 0.0363351789831535 x[2,10] + 0.1065147511738669 x[2,11]
   + 0.00710210538716572 x[2,12] >= 0
 findWorstP[2,3]: z + 0.0168296336188761 cashProportion[2]
   - 0.0168296336188761 cashProportion[3] + 0.0361500530133459 x[2,1]
   + 0.1468048940574564 x[2,2] + 0.0556051094767667 x[2,3]
   + 0.0943637557010384 x[2,4] + 0.1656709133442165 x[2,5]
   + 0.0958615930931184 x[2,6] + 0.0360154159443949 x[2,7]
   + 0.1175718204614686 x[2,8] + 0.085174775745132 x[2,9]
   + 0.0363351789831535 x[2,10] + 0.1065147511738669 x[2,11]
   + 0.00710210538716572 x[2,12] - 0.0361500530133459 x[3,1]
   - 0.1468048940574564 x[3,2] - 0.0556051094767667 x[3,3]
   - 0.0943637557010384 x[3,4] - 0.1656709133442165 x[3,5]
   - 0.0958615930931184 x[3,6] - 0.0360154159443949 x[3,7]
   - 0.1175718204614686 x[3,8] - 0.085174775745132 x[3,9]
   - 0.0363351789831535 x[3,10] - 0.1065147511738669 x[3,11]
   - 0.00710210538716572 x[3,12] >= 0
 findWorstP[3,1]: z - 0.0177207563218798 cashProportion[1]
   + 0.0177207563218798 cashProportion[3] - 0.0192801828782052 x[1,1]
   - 0.0955857596002197 x[1,2] - 0.0891354042990555 x[1,3]
   - 0.025216636246035 x[1,4] - 0.173255834559019 x[1,5]
   - 0.0579823146851908 x[1,6] - 0.014601903209229 x[1,7]
   - 0.1278906983750066 x[1,8] - 0.0669135758714182 x[1,9]
   - 0.0686679307472843 x[1,10] - 0.0773156598323616 x[1,11]
   - 0.1664333433750952 x[1,12] + 0.0192801828782052 x[3,1]
   + 0.0955857596002197 x[3,2] + 0.0891354042990555 x[3,3]
   + 0.025216636246035 x[3,4] + 0.173255834559019 x[3,5]
   + 0.0579823146851908 x[3,6] + 0.014601903209229 x[3,7]
   + 0.1278906983750066 x[3,8] + 0.0669135758714182 x[3,9]
   + 0.0686679307472843 x[3,10] + 0.0773156598323616 x[3,11]
   + 0.1664333433750952 x[3,12] >= 0
 findWorstP[3,2]: z - 0.0177207563218798 cashProportion[2]
   + 0.0177207563218798 cashProportion[3] - 0.0192801828782052 x[2,1]
   - 0.0955857596002197 x[2,2] - 0.0891354042990555 x[2,3]
   - 0.025216636246035 x[2,4] - 0.173255834559019 x[2,5]
   - 0.0579823146851908 x[2,6] - 0.014601903209229 x[2,7]
   - 0.1278906983750066 x[2,8] - 0.0669135758714182 x[2,9]
   - 0.0686679307472843 x[2,10] - 0.0773156598323616 x[2,11]
   - 0.1664333433750952 x[2,12] + 0.0192801828782052 x[3,1]
   + 0.0955857596002197 x[3,2] + 0.0891354042990555 x[3,3]
   + 0.025216636246035 x[3,4] + 0.173255834559019 x[3,5]
   + 0.0579823146851908 x[3,6] + 0.014601903209229 x[3,7]
   + 0.1278906983750066 x[3,8] + 0.0669135758714182 x[3,9]
   + 0.0686679307472843 x[3,10] + 0.0773156598323616 x[3,11]
   + 0.1664333433750952 x[3,12] >= 0
Bounds
 z <= 1
 -infinity <= cashProportion[1] <= 1
 -infinity <= cashProportion[2] <= 1
 -infinity <= cashProportion[3] <= 1
Binaries
 x[1,1] x[1,2] x[1,3] x[1,4] x[1,5] x[1,6] x[1,7] x[1,8] x[1,9] x[1,10]
 x[1,11] x[1,12] x[2,1] x[2,2] x[2,3] x[2,4] x[2,5] x[2,6] x[2,7] x[2,8]
 x[2,9] x[2,10] x[2,11] x[2,12] x[3,1] x[3,2] x[3,3] x[3,4] x[3,5] x[3,6]
 x[3,7] x[3,8] x[3,9] x[3,10] x[3,11] x[3,12]
End
