data/mps_files/pEFS/52_1.mps
NAME foo
ROWS
 N  OBJ
 E  allocateEach[1]
 E  allocateEach[2]
 E  allocateEach[3]
 E  allocateEach[4]
 E  allocateEach[5]
 E  allocateEach[6]
 E  allocateEach[7]
 E  allocateEach[8]
 E  allocateEach[9]
 E  allocateEach[10]
 E  allocateEach[11]
 E  allocateEach[12]
 E  allocateAllCash
 G  findWorstP[1,2]
 G  findWorstP[1,3]
 G  findWorstP[2,1]
 G  findWorstP[2,3]
 G  findWorstP[3,1]
 G  findWorstP[3,2]
COLUMNS
    z         OBJ       1
    z         findWorstP[1,2]  1
    z         findWorstP[1,3]  1
    z         findWorstP[2,1]  1
    z         findWorstP[2,3]  1
    z         findWorstP[3,1]  1
    z         findWorstP[3,2]  1
    cashProportion[1]  allocateAllCash  1
    cashProportion[1]  findWorstP[1,2]  1.5473887814313345e-02
    cashProportion[1]  findWorstP[1,3]  1.5473887814313345e-02
    cashProportion[1]  findWorstP[2,1]  -1.6829633618876117e-02
    cashProportion[1]  findWorstP[3,1]  -1.7720756321879815e-02
    cashProportion[2]  allocateAllCash  1
    cashProportion[2]  findWorstP[1,2]  -1.5473887814313345e-02
    cashProportion[2]  findWorstP[2,1]  1.6829633618876117e-02
    cashProportion[2]  findWorstP[2,3]  1.6829633618876117e-02
    cashProportion[2]  findWorstP[3,2]  -1.7720756321879815e-02
    cashProportion[3]  allocateAllCash  1
    cashProportion[3]  findWorstP[1,3]  -1.5473887814313345e-02
    cashProportion[3]  findWorstP[2,3]  -1.6829633618876117e-02
    cashProportion[3]  findWorstP[3,1]  1.7720756321879815e-02
    cashProportion[3]  findWorstP[3,2]  1.7720756321879815e-02
    MARKER    'MARKER'                 'INTORG'
    x[1,1]    allocateEach[1]  1
    x[1,1]    findWorstP[1,2]  8.9624758220502893e-02
    x[1,1]    findWorstP[1,3]  8.9624758220502893e-02
    x[1,1]    findWorstP[2,1]  -3.6150053013345895e-02
    x[1,1]    findWorstP[3,1]  -1.9280182878205238e-02
    x[1,2]    allocateEach[2]  1
    x[1,2]    findWorstP[1,2]  1.3658800773694391e-01
    x[1,2]    findWorstP[1,3]  1.3658800773694391e-01
    x[1,2]    findWorstP[2,1]  -1.4680489405745636e-01
    x[1,2]    findWorstP[3,1]  -9.5585759600219727e-02
    x[1,3]    allocateEach[3]  1
    x[1,3]    findWorstP[1,2]  2.4309477756286262e-02
    x[1,3]    findWorstP[1,3]  2.4309477756286262e-02
    x[1,3]    findWorstP[2,1]  -5.5605109476766695e-02
    x[1,3]    findWorstP[3,1]  -8.9135404299055476e-02
    x[1,4]    allocateEach[4]  1
    x[1,4]    findWorstP[1,2]  1.4129206963249516e-01
    x[1,4]    findWorstP[1,3]  1.4129206963249516e-01
    x[1,4]    findWorstP[2,1]  -9.4363755701038388e-02
    x[1,4]    findWorstP[3,1]  -2.5216636246034981e-02
    x[1,5]    allocateEach[5]  1
    x[1,5]    findWorstP[1,2]  9.5087040618955510e-02
    x[1,5]    findWorstP[1,3]  9.5087040618955510e-02
    x[1,5]    findWorstP[2,1]  -1.6567091334421649e-01
    x[1,5]    findWorstP[3,1]  -1.7325583455901897e-01
    x[1,6]    allocateEach[6]  1
    x[1,6]    findWorstP[1,2]  1.2386847195357832e-01
    x[1,6]    findWorstP[1,3]  1.2386847195357832e-01
    x[1,6]    findWorstP[2,1]  -9.5861593093118355e-02
    x[1,6]    findWorstP[3,1]  -5.7982314685190758e-02
    x[1,7]    allocateEach[7]  1
    x[1,7]    findWorstP[1,2]  1.0245261121856866e-01
    x[1,7]    findWorstP[1,3]  1.0245261121856866e-01
    x[1,7]    findWorstP[2,1]  -3.6015415944394891e-02
    x[1,7]    findWorstP[3,1]  -1.4601903209228969e-02
    x[1,8]    allocateEach[8]  1
    x[1,8]    findWorstP[1,2]  6.2823984526112174e-03
    x[1,8]    findWorstP[1,3]  6.2823984526112174e-03
    x[1,8]    findWorstP[2,1]  -1.1757182046146855e-01
    x[1,8]    findWorstP[3,1]  -1.2789069837500663e-01
    x[1,9]    allocateEach[9]  1
    x[1,9]    findWorstP[1,2]  1.4776015473887813e-01
    x[1,9]    findWorstP[1,3]  1.4776015473887813e-01
    x[1,9]    findWorstP[2,1]  -8.5174775745132020e-02
    x[1,9]    findWorstP[3,1]  -6.6913575871418177e-02
    x[1,10]   allocateEach[10]  1
    x[1,10]   findWorstP[1,2]  1.7021276595744679e-04
    x[1,10]   findWorstP[1,3]  1.7021276595744679e-04
    x[1,10]   findWorstP[2,1]  -3.6335178983153534e-02
    x[1,10]   findWorstP[3,1]  -6.8667930747284292e-02
    x[1,11]   allocateEach[11]  1
    x[1,11]   findWorstP[1,2]  7.6595744680851049e-02
    x[1,11]   findWorstP[1,3]  7.6595744680851049e-02
    x[1,11]   findWorstP[2,1]  -1.0651475117386694e-01
    x[1,11]   findWorstP[3,1]  -7.7315659832361647e-02
    x[1,12]   allocateEach[12]  1
    x[1,12]   findWorstP[1,2]  4.0495164410058022e-02
    x[1,12]   findWorstP[1,3]  4.0495164410058022e-02
    x[1,12]   findWorstP[2,1]  -7.1021053871657214e-03
    x[1,12]   findWorstP[3,1]  -1.6643334337509524e-01
    x[2,1]    allocateEach[1]  1
    x[2,1]    findWorstP[1,2]  -8.9624758220502893e-02
    x[2,1]    findWorstP[2,1]  3.6150053013345895e-02
    x[2,1]    findWorstP[2,3]  3.6150053013345895e-02
    x[2,1]    findWorstP[3,2]  -1.9280182878205238e-02
    x[2,2]    allocateEach[2]  1
    x[2,2]    findWorstP[1,2]  -1.3658800773694391e-01
    x[2,2]    findWorstP[2,1]  1.4680489405745636e-01
    x[2,2]    findWorstP[2,3]  1.4680489405745636e-01
    x[2,2]    findWorstP[3,2]  -9.5585759600219727e-02
    x[2,3]    allocateEach[3]  1
    x[2,3]    findWorstP[1,2]  -2.4309477756286262e-02
    x[2,3]    findWorstP[2,1]  5.5605109476766695e-02
    x[2,3]    findWorstP[2,3]  5.5605109476766695e-02
    x[2,3]    findWorstP[3,2]  -8.9135404299055476e-02
    x[2,4]    allocateEach[4]  1
    x[2,4]    findWorstP[1,2]  -1.4129206963249516e-01
    x[2,4]    findWorstP[2,1]  9.4363755701038388e-02
    x[2,4]    findWorstP[2,3]  9.4363755701038388e-02
    x[2,4]    findWorstP[3,2]  -2.5216636246034981e-02
    x[2,5]    allocateEach[5]  1
    x[2,5]    findWorstP[1,2]  -9.5087040618955510e-02
    x[2,5]    findWorstP[2,1]  1.6567091334421649e-01
    x[2,5]    findWorstP[2,3]  1.6567091334421649e-01
    x[2,5]    findWorstP[3,2]  -1.7325583455901897e-01
    x[2,6]    allocateEach[6]  1
    x[2,6]    findWorstP[1,2]  -1.2386847195357832e-01
    x[2,6]    findWorstP[2,1]  9.5861593093118355e-02
    x[2,6]    findWorstP[2,3]  9.5861593093118355e-02
    x[2,6]    findWorstP[3,2]  -5.7982314685190758e-02
    x[2,7]    allocateEach[7]  1
    x[2,7]    findWorstP[1,2]  -1.0245261121856866e-01
    x[2,7]    findWorstP[2,1]  3.6015415944394891e-02
    x[2,7]    findWorstP[2,3]  3.6015415944394891e-02
    x[2,7]    findWorstP[3,2]  -1.4601903209228969e-02
    x[2,8]    allocateEach[8]  1
    x[2,8]    findWorstP[1,2]  -6.2823984526112174e-03
    x[2,8]    findWorstP[2,1]  1.1757182046146855e-01
    x[2,8]    findWorstP[2,3]  1.1757182046146855e-01
    x[2,8]    findWorstP[3,2]  -1.2789069837500663e-01
    x[2,9]    allocateEach[9]  1
    x[2,9]    findWorstP[1,2]  -1.4776015473887813e-01
    x[2,9]    findWorstP[2,1]  8.5174775745132020e-02
    x[2,9]    findWorstP[2,3]  8.5174775745132020e-02
    x[2,9]    findWorstP[3,2]  -6.6913575871418177e-02
    x[2,10]   allocateEach[10]  1
    x[2,10]   findWorstP[1,2]  -1.7021276595744679e-04
    x[2,10]   findWorstP[2,1]  3.6335178983153534e-02
    x[2,10]   findWorstP[2,3]  3.6335178983153534e-02
    x[2,10]   findWorstP[3,2]  -6.8667930747284292e-02
    x[2,11]   allocateEach[11]  1
    x[2,11]   findWorstP[1,2]  -7.6595744680851049e-02
    x[2,11]   findWorstP[2,1]  1.0651475117386694e-01
    x[2,11]   findWorstP[2,3]  1.0651475117386694e-01
    x[2,11]   findWorstP[3,2]  -7.7315659832361647e-02
    x[2,12]   allocateEach[12]  1
    x[2,12]   findWorstP[1,2]  -4.0495164410058022e-02
    x[2,12]   findWorstP[2,1]  7.1021053871657214e-03
    x[2,12]   findWorstP[2,3]  7.1021053871657214e-03
    x[2,12]   findWorstP[3,2]  -1.6643334337509524e-01
    x[3,1]    allocateEach[1]  1
    x[3,1]    findWorstP[1,3]  -8.9624758220502893e-02
    x[3,1]    findWorstP[2,3]  -3.6150053013345895e-02
    x[3,1]    findWorstP[3,1]  1.9280182878205238e-02
    x[3,1]    findWorstP[3,2]  1.9280182878205238e-02
    x[3,2]    allocateEach[2]  1
    x[3,2]    findWorstP[1,3]  -1.3658800773694391e-01
    x[3,2]    findWorstP[2,3]  -1.4680489405745636e-01
    x[3,2]    findWorstP[3,1]  9.5585759600219727e-02
    x[3,2]    findWorstP[3,2]  9.5585759600219727e-02
    x[3,3]    allocateEach[3]  1
    x[3,3]    findWorstP[1,3]  -2.4309477756286262e-02
    x[3,3]    findWorstP[2,3]  -5.5605109476766695e-02
    x[3,3]    findWorstP[3,1]  8.9135404299055476e-02
    x[3,3]    findWorstP[3,2]  8.9135404299055476e-02
    x[3,4]    allocateEach[4]  1
    x[3,4]    findWorstP[1,3]  -1.4129206963249516e-01
    x[3,4]    findWorstP[2,3]  -9.4363755701038388e-02
    x[3,4]    findWorstP[3,1]  2.5216636246034981e-02
    x[3,4]    findWorstP[3,2]  2.5216636246034981e-02
    x[3,5]    allocateEach[5]  1
    x[3,5]    findWorstP[1,3]  -9.5087040618955510e-02
    x[3,5]    findWorstP[2,3]  -1.6567091334421649e-01
    x[3,5]    findWorstP[3,1]  1.7325583455901897e-01
    x[3,5]    findWorstP[3,2]  1.7325583455901897e-01
    x[3,6]    allocateEach[6]  1
    x[3,6]    findWorstP[1,3]  -1.2386847195357832e-01
    x[3,6]    findWorstP[2,3]  -9.5861593093118355e-02
    x[3,6]    findWorstP[3,1]  5.7982314685190758e-02
    x[3,6]    findWorstP[3,2]  5.7982314685190758e-02
    x[3,7]    allocateEach[7]  1
    x[3,7]    findWorstP[1,3]  -1.0245261121856866e-01
    x[3,7]    findWorstP[2,3]  -3.6015415944394891e-02
    x[3,7]    findWorstP[3,1]  1.4601903209228969e-02
    x[3,7]    findWorstP[3,2]  1.4601903209228969e-02
    x[3,8]    allocateEach[8]  1
    x[3,8]    findWorstP[1,3]  -6.2823984526112174e-03
    x[3,8]    findWorstP[2,3]  -1.1757182046146855e-01
    x[3,8]    findWorstP[3,1]  1.2789069837500663e-01
    x[3,8]    findWorstP[3,2]  1.2789069837500663e-01
    x[3,9]    allocateEach[9]  1
    x[3,9]    findWorstP[1,3]  -1.4776015473887813e-01
    x[3,9]    findWorstP[2,3]  -8.5174775745132020e-02
    x[3,9]    findWorstP[3,1]  6.6913575871418177e-02
    x[3,9]    findWorstP[3,2]  6.6913575871418177e-02
    x[3,10]   allocateEach[10]  1
    x[3,10]   findWorstP[1,3]  -1.7021276595744679e-04
    x[3,10]   findWorstP[2,3]  -3.6335178983153534e-02
    x[3,10]   findWorstP[3,1]  6.8667930747284292e-02
    x[3,10]   findWorstP[3,2]  6.8667930747284292e-02
    x[3,11]   allocateEach[11]  1
    x[3,11]   findWorstP[1,3]  -7.6595744680851049e-02
    x[3,11]   findWorstP[2,3]  -1.0651475117386694e-01
    x[3,11]   findWorstP[3,1]  7.7315659832361647e-02
    x[3,11]   findWorstP[3,2]  7.7315659832361647e-02
    x[3,12]   allocateEach[12]  1
    x[3,12]   findWorstP[1,3]  -4.0495164410058022e-02
    x[3,12]   findWorstP[2,3]  -7.1021053871657214e-03
    x[3,12]   findWorstP[3,1]  1.6643334337509524e-01
    x[3,12]   findWorstP[3,2]  1.6643334337509524e-01
    MARKER    'MARKER'                 'INTEND'
RHS
    RHS1      allocateEach[1]  1
    RHS1      allocateEach[2]  1
    RHS1      allocateEach[3]  1
    RHS1      allocateEach[4]  1
    RHS1      allocateEach[5]  1
    RHS1      allocateEach[6]  1
    RHS1      allocateEach[7]  1
    RHS1      allocateEach[8]  1
    RHS1      allocateEach[9]  1
    RHS1      allocateEach[10]  1
    RHS1      allocateEach[11]  1
    RHS1      allocateEach[12]  1
    RHS1      allocateAllCash  1
BOUNDS
 UP BND1      z         1
 MI BND1      cashProportion[1]
 UP BND1      cashProportion[1]  1
 MI BND1      cashProportion[2]
 UP BND1      cashProportion[2]  1
 MI BND1      cashProportion[3]
 UP BND1      cashProportion[3]  1
 BV BND1      x[1,1]  
 BV BND1      x[1,2]  
 BV BND1      x[1,3]  
 BV BND1      x[1,4]  
 BV BND1      x[1,5]  
 BV BND1      x[1,6]  
 BV BND1      x[1,7]  
 BV BND1      x[1,8]  
 BV BND1      x[1,9]  
 BV BND1      x[1,10] 
 BV BND1      x[1,11] 
 BV BND1      x[1,12] 
 BV BND1      x[2,1]  
 BV BND1      x[2,2]  
 BV BND1      x[2,3]  
 BV BND1      x[2,4]  
 BV BND1      x[2,5]  
 BV BND1      x[2,6]  
 BV BND1      x[2,7]  
 BV BND1      x[2,8]  
 BV BND1      x[2,9]  
 BV BND1      x[2,10] 
 BV BND1      x[2,11] 
 BV BND1      x[2,12] 
 BV BND1      x[3,1]  
 BV BND1      x[3,2]  
 BV BND1      x[3,3]  
 BV BND1      x[3,4]  
 BV BND1      x[3,5]  
 BV BND1      x[3,6]  
 BV BND1      x[3,7]  
 BV BND1      x[3,8]  
 BV BND1      x[3,9]  
 BV BND1      x[3,10] 
 BV BND1      x[3,11] 
 BV BND1      x[3,12] 
ENDATA
